decision_x1=[0,2];
decision_x2=[0,2];
decision_x3=[0,2];
decision_x4=[0,2];
decision_x5=[0,2];
random_y1=[0,2];
constraint_x3_x1=[
0,0,1.2|
0,1,0.81|
0,2,9.3|
1,0,4.6|
1,1,0.77|
1,2,1.2|
2,0,3.8|
2,1,1.9|
2,2,3.4|
];
constraint_x4_x2=[
0,0,2.7|
0,1,8|
0,2,7|
1,0,9.1|
1,1,1.2|
1,2,1.8|
2,0,5.5|
2,1,2.2|
2,2,9.2|
];
constraint_x4_x3=[
0,0,0.65|
0,1,8.8|
0,2,7.9|
1,0,7.5|
1,1,2.7|
1,2,1.9|
2,0,5.9|
2,1,2|
2,2,8.9|
];
constraint_x5_x2=[
0,0,9.3|
0,1,3.1|
0,2,2.5|
1,0,0.61|
1,1,7|
1,2,1.9|
2,0,6.7|
2,1,1.6|
2,2,1.5|
];
constraint_x5_x4=[
0,0,3.9|
0,1,8|
0,2,8.9|
1,0,1.8|
1,1,5.8|
1,2,3.9|
2,0,3.6|
2,1,7.1|
2,2,1.9|
];
constraint_x1_y1=[
0,0,4.4|
0,1,5.9|
0,2,2.3|
1,0,1.6|
1,1,3.6|
1,2,1.2|
2,0,4.6|
2,1,3.3|
2,2,4.7|
];
initial_distribution_y1=[0.24,0.63,0.13];
transition_y1=[
0.12,0.45,0.43|
0.38,0.52,0.095|
0.54,0.18,0.28|
];
